language Essence 1.3

letting class be function(1 --> 1, 2 --> 1)
letting deck_length be 11
letting deck_width be 76
letting length be function(1 --> 8, 2 --> 2)
letting n_classes be 1
letting n_containers be 2
letting separation be function()
letting width be function(1 --> 14, 2 --> 61)
